NAME : amz1321.150119_150119.tour
COMMENT : Cost = 150119_150119
COMMENT : Found by LKH-AMZ [Keld Helsgaun] Sun May 11 13:07:52 2025
COMMENT : TW viol.: 0 #: 0
TYPE : TOUR
DIMENSION : 174
TOUR_SECTION
138
169
6
105
147
20
87
52
23
97
81
118
80
37
149
30
156
102
54
114
24
148
120
46
163
57
50
133
41
93
27
170
67
155
68
83
121
146
8
82
88
70
154
48
56
108
95
22
28
100
32
96
137
85
89
119
167
38
29
69
17
78
130
13
65
49
74
152
143
5
99
59
63
14
15
76
98
125
11
127
159
174
168
31
113
71
107
40
10
122
39
42
106
16
66
166
84
111
75
110
112
124
160
136
2
60
77
103
47
33
141
165
72
90
171
36
134
64
115
144
73
7
92
173
140
151
35
157
53
101
3
18
58
164
132
131
172
161
45
55
91
19
109
1
150
123
61
25
129
158
153
142
34
12
86
162
139
94
79
104
145
135
21
43
126
128
116
62
4
51
9
26
117
44
-1
EOF
